93
1	2.5	1.25
2	16.25	1.25
2	2.5	3.75
3	16.25	3.75
1	12.5	13.75
3	16.25	13.75
1	12.5	31.25
3	16.25	31.25
1	2.5	41.25
3	16.25	41.25
2	2.5	43.75
3	16.25	43.75
1	12.5	53.75
3	16.25	53.75
1	12.5	71.25
3	16.25	71.25
1	2.5	81.25
3	16.25	81.25
2	2.5	83.75
2	16.25	83.75
2	27.5	1.25
2	41.25	1.25
2	27.5	3.75
3	41.25	3.75
1	37.5	13.75
3	41.25	13.75
1	37.5	31.25
3	41.25	31.25
2	27.5	41.25
3	41.25	41.25
2	27.5	43.75
3	41.25	43.75
1	37.5	53.75
3	41.25	53.75
1	37.5	71.25
3	41.25	71.25
2	27.5	81.25
3	41.25	81.25
2	27.5	83.75
2	41.25	83.75
2	52.5	1.25
2	66.25	1.25
2	52.5	3.75
3	66.25	3.75
1	62.5	13.75
3	66.25	13.75
1	62.5	31.25
3	66.25	31.25
2	52.5	41.25
3	66.25	41.25
2	52.5	43.75
3	66.25	43.75
1	62.5	53.75
3	66.25	53.75
1	62.5	71.25
3	66.25	71.25
2	52.5	81.25
3	66.25	81.25
2	52.5	83.75
2	66.25	83.75
2	77.5	1.25
3	91.25	1.25
1	77.5	3.75
3	91.25	3.75
1	87.5	13.75
3	91.25	13.75
1	87.5	31.25
3	91.25	31.25
2	77.5	41.25
4	91.25	41.25
1	77.5	43.75
3	91.25	43.75
1	87.5	53.75
3	91.25	53.75
1	87.5	71.25
3	91.25	71.25
2	77.5	81.25
4	91.25	81.25
1	77.5	83.75
2	91.25	83.75
1	102.5	1.25
1	102.5	76.25
2	102.5	81.25
2	-30	150
3	22.5	150
3	47.5	150
3	72.5	150
3	120	150
2	-30	-30
3	22.5	-30
3	47.5	-30
3	72.5	-30
2	120	-30

102
0	1
2	3
1	3
3	5
4	5
5	7
6	7
8	9
10	11
9	11
11	13
9	7
12	13
13	15
14	15
16	17
18	19
17	19
17	15
20	21
22	23
21	23
23	25
20	2
24	25
25	27
26	27
28	29
30	31
29	31
31	33
29	27
28	10
32	33
33	35
34	35
36	37
38	39
37	39
37	35
36	18
40	41
42	43
41	43
43	45
40	22
44	45
45	47
46	47
48	49
50	51
49	51
51	53
49	47
48	30
52	53
53	55
54	55
56	57
58	59
57	59
57	55
56	38
60	61
62	63
61	63
63	65
61	80
60	42
64	65
65	67
66	67
68	69
70	71
69	71
71	73
69	67
69	81
68	50
72	73
73	75
74	75
76	77
78	79
77	79
77	75
77	82
76	58
82	87
83	84
84	89
84	85
85	90
85	86
86	91
86	87
87	92
92	91
91	90
90	89
89	88
88	83
